42047
1 1 1 0 1 0 0 1 1 0 1 0 0 0 0 0 0 0 0 0 0 1 1 0 0 1 0 0 0 1 
7 29 2 22 2 25 2 22 22 22 4 29 10 1 29 7 1 10 22 22 7 22 2 0 10 22 22 8 29 2 29 4 4 22 22 29 10 8 0 22 7 8 29 29 8 4 1 2 29 10 22 22 0 2 8 22 25 8 7 25 29 0 7 8 8 29 0 1 1 25 7 25 1 8 10 10 10 2 8 22 10 29 8 25 4 10 29 2 22 25 1 29 25 25 0 8 22 1 0 29 1 1 25 7 4 0 4 1 22 1 22 4 7 22 22 8 7 25 22 8 8 22 1 4 29 22 2 7 8 0 7 2 25 10 8 8 1 8 29 10 7 22 22 25 25 21 2 2 7 25 0 0 1 0 8 7 2 22 1 1 1 1 10 0 29 7 1 4 8 21 1 8 29 8 4 0 0 10 29 10 1 22 0 29 25 8 7 1 0 2 2 21 22 29 7 7 7 29 10 29 